34291.8
149 42 79 122 62 130 99 143 109 25 31 111 81 11 35 21 73 2 7 140 90 85 108 68 66 18 80 138 100 24 14 50 144 6 117 17 47 132 94 28 116 134 127 52 30 43 64 60 58 84 16 1 54 3 112 65 141 39 37 51 57 88 146 119 135 26 69 12 74 95 133 67 33 103 145 44 136 92 87 77 83 120 8 86 19 82 106 128 0 56 22 91 137 59 53 131 5 9 10 71 107 101 49 96 121 123 114 126 98 15 13 75 139 48 63 55 40 76 20 142 41 46 93 113 118 104 45 124 36 129 147 23 70 38 78 27 125 4 34 89 72 29 32 102 110 105 97 61 148 115 
